NAME : XML100_3272_17
DIMENSION : 101
NB_CLUSTERS : 4
CLUSTERING_ALG : KMedoids
CLUSTERING_PARAMS : k(3)
CLUSTERS
1 0
2 1 3 5 6 7 8 10 14 15 22 24 25 27 30 32 33 36 37 38 40 45 49 50 52 53 55 58 68 74 75 76 86 87 88 92 95 96 100
3 16 19 20 28 29 41 43 44 47 48 51 54 56 59 62 64 65 66 69 70 71 78 80 81 82 84 85 91 93 97 99
4 2 4 9 11 12 13 17 18 21 23 26 31 34 35 39 42 46 57 60 61 63 67 72 73 77 79 83 89 90 94 98
EOF